7

0   22   5   1   2   5   7
22   0   5   17   20   25   12
5   5   0   7   16   0   7
1   17   7   0   21   14   17
2   20   16   21   0   12   5
5   25   0   14   12   0   24
7   12   7   17   5   24   0

0   57   76   31   25   26   45
57   0   33   38   32   55   24
76   33   0   57   51   50   43
31   38   57   0   22   47   14
25   32   51   22   0   25   36
26   55   50   47   25   0   61
45   24   43   14   36   61   0